NAME          BLANK   
ROWS
 N  OBJROW
 L  R0000000
COLUMNS
    C0000000  OBJROW     -852.         R0000000  368.        
    C0000001  OBJROW     -644.         R0000000  352.        
    C0000002  OBJROW     -159.         R0000000  914.        
    C0000003  OBJROW     -536.         R0000000  5.          
    C0000004  OBJROW     -840.         R0000000  821.        
    C0000005  OBJROW     -649.         R0000000  28.         
    C0000006  OBJROW     -369.         R0000000  954.        
    C0000007  OBJROW     -697.         R0000000  529.        
    C0000008  OBJROW     -281.         R0000000  866.        
    C0000009  OBJROW     -145.         R0000000  743.        
    C0000010  OBJROW     -281.         R0000000  933.        
    C0000011  OBJROW     -316.         R0000000  874.        
    C0000012  OBJROW     -641.         R0000000  119.        
    C0000013  OBJROW     -922.         R0000000  289.        
    C0000014  OBJROW     -275.         R0000000  399.        
    C0000015  OBJROW     -733.         R0000000  719.        
    C0000016  OBJROW     -845.         R0000000  56.         
    C0000017  OBJROW     -442.         R0000000  564.        
RHS
    RHS       R0000000  15098.      
BOUNDS
 BV BOUND     C0000000  1.          
 BV BOUND     C0000001  1.          
 BV BOUND     C0000002  1.          
 BV BOUND     C0000003  1.          
 BV BOUND     C0000004  1.          
 BV BOUND     C0000005  1.          
 BV BOUND     C0000006  1.          
 BV BOUND     C0000007  1.          
 BV BOUND     C0000008  1.          
 BV BOUND     C0000009  1.          
 BV BOUND     C0000010  1.          
 BV BOUND     C0000011  1.          
 BV BOUND     C0000012  1.          
 BV BOUND     C0000013  1.          
 BV BOUND     C0000014  1.          
 BV BOUND     C0000015  1.          
 BV BOUND     C0000016  1.          
 BV BOUND     C0000017  1.          
ENDATA
